#######################################
### Exact MIP solver for the HHCRSP ###
#######################################
-- Instance file: new-instances/HHCRSP_200_40_98_0.4_R_RC.txt
-- Max threads: 4
-- Time limit: 999999 seconds
-- Use initial solution: No
Trivial flow violations prevented generating 359470 variables.
Version identifier: 20.1.0.0 | 2020-11-10 | 9bedb6d68
CPXPARAM_Threads                                 4
CPXPARAM_TimeLimit                               999999
Parallel mode: deterministic, using up to 4 threads for concurrent optimization:
 * Starting dual Simplex on 1 thread...
 * Starting Barrier on 3 threads...
Tried aggregator 1 time.
LP Presolve eliminated 21390 rows and 4931 columns.
Reduced LP has 391300 rows, 372310 columns, and 6783629 nonzeros.
Presolve time = 13.40 sec. (1571.63 ticks)
Symmetry aggregator did 576897 additional substitutions.
Initializing dual steep norms . . .

Iteration log . . .
Iteration:     1   Dual objective     =             0.666667

Dual crossover.
  Dual:  Fixing 971 variables.
      970 DMoves:  Infeasibility  4.52804461e-13  Objective  2.93666667e+02
        0 DMoves:  Infeasibility  2.67878312e-13  Objective  2.93666667e+02
  Dual:  Pushed 32, exchanged 939.
  Primal:  Fixing 556 variables.
      555 PMoves:  Infeasibility  3.19189120e-16  Objective  2.93666667e+02
        0 PMoves:  Infeasibility  1.05471187e-15  Objective  2.93666667e+02
  Primal:  Pushed 451, exchanged 105.

Dual simplex solved model.


Solution status from MIP model:
-- Processing time: 21.966 sec.
-- Memory used: 415.722 MB
-- Best bound: inf
-- Obj value: 293.667
-- Gap: inf%
-- Total distance: 881
-- Total tardiness: 0
-- Largest tardiness: 0
